WARNING: for repeatability, setting FPU to use double precision
============================[ Problem Statistics ]=============================
|                                                                             |
|  Number of variables:           276                                         |
|  Number of clauses:            1115                                         |
|  Parse time:                   0.00 s                                       |
|                                                                             |
============================[ Search Statistics ]==============================
| Conflicts |          ORIGINAL         |          LEARNT          | Progress |
|           |    Vars  Clauses Literals |    Limit  Clauses Lit/Cl |          |
===============================================================================
|       100 |     276     1115     3189 |      408      100      6 |  0.004 % |
===============================================================================
restarts              : 2
conflicts             : 141            (inf /sec)
decisions             : 197            (0.00 % random) (inf /sec)
propagations          : 6658           (inf /sec)
conflict literals     : 836            (27.93 % deleted)
Memory used           : 19.00 MB
CPU time              : 0 s

UNSATISFIABLE
